%numero di macchine
num_machines = 6;

% numero di lavori
num_jobs = 6;

% tempo massimo totale
max_time = 100;

% risorse richieste da ogni job (ognuno richiede un numero di risorse pari a 1)
resources = [1 | i in 1..num_jobs];

% tempo per ogni job

job_duration = array2d(1..num_jobs, 1..num_machines, 
   [
1, 3, 6,  7,  3,  6, 
8, 5, 10, 10, 10, 4,
5, 4, 8,  9,  1,  7,
5, 5, 5,  3,  8,  9,  
9, 3, 5,  4,  3,  1, 
3, 3, 9,  10, 4,  1,

 ]);


% ordine dei job

job_order = array2d(1..num_jobs, 1..num_machines,
  [
   % indica l'ordine con il quale i job devono essere eseguiti
2, 0, 1, 3, 5, 4,
1, 2, 4, 5, 0, 3,
2, 3, 5, 0, 1, 4,
1, 0, 2, 3, 4, 5,
2, 1, 4, 5, 0, 3,
1, 3, 5, 0, 4, 2,
  ]);
